#3x3_1_conGames# 20 2 29 1000000000
2 2 2 2 2 2 2 2 2 2 2 2 2 2 2 2 2 2 2 2 
1 0 0 2
0 0
1 625
1 1 0 2
0 0
1 685
1 2 0 2
0 0
1 905
1 3 0 2
0 0
1 645
1 4 0 2
0 0
1 365
1 5 0 2
0 0
1 305
1 6 0 2
0 0
1 835
1 7 0 2
0 0
1 665
1 8 0 2
0 0
1 965
1 9 0 2
0 0
1 345
1 10 0 2
0 0
1 475
1 11 0 2
0 0
1 455
1 12 0 2
0 0
1 755
1 13 0 2
0 0
1 965
1 14 0 2
0 0
1 325
1 15 0 2
0 0
1 895
1 16 0 2
0 0
1 665
1 17 0 2
0 0
1 435
1 18 0 2
0 0
1 265
1 19 0 2
0 0
1 665
6 0 1 2 3 12 15 0 64
1 0 0 1 1 1 10000
0 1 0 1 1 0 10000
0 1 1 1 0 1 0
1 1 0 0 1 0 10000
0 0 1 0 1 0 0
0 1 1 0 0 0 10000
1 0 0 0 0 0 10000
0 1 1 1 1 1 10000
1 0 0 1 0 0 0
1 1 1 1 1 0 10000
0 0 1 0 0 1 0
0 1 1 0 1 1 0
0 0 1 1 0 0 0
0 1 1 1 0 0 10000
1 0 1 1 0 1 0
0 0 1 0 1 1 10000
1 1 1 0 1 0 10000
0 1 1 0 0 1 10000
1 0 1 0 0 0 10000
0 0 1 1 1 1 10000
1 1 1 1 0 0 10000
1 0 1 1 1 1 10000
1 0 0 1 1 0 10000
0 0 1 0 0 0 10000
1 1 1 0 0 1 10000
0 1 1 0 1 0 10000
1 0 1 0 1 1 0
0 0 1 1 0 1 10000
0 0 0 1 1 0 10000
1 0 1 1 0 0 10000
1 1 1 0 1 1 10000
1 0 1 0 0 1 10000
1 1 1 1 0 1 10000
0 0 1 1 1 0 10000
0 0 0 1 0 1 10000
0 0 0 0 0 0 0
1 1 1 0 0 0 10000
1 0 1 0 1 0 10000
0 1 0 0 1 0 0
0 0 0 1 1 1 10000
1 1 0 1 1 0 0
0 0 0 0 1 1 10000
1 0 0 1 0 1 10000
0 1 0 0 0 1 0
0 0 0 1 0 0 10000
1 1 0 1 0 1 0
0 1 0 1 0 0 0
0 0 0 0 0 1 10000
1 1 0 0 0 0 10000
0 1 0 0 1 1 10000
1 0 0 0 1 0 0
1 1 0 1 1 1 10000
0 1 0 1 1 1 10000
0 0 0 0 1 0 10000
1 1 0 0 1 1 0
0 1 0 0 0 0 10000
1 0 0 0 0 1 0
1 1 0 1 0 0 10000
0 1 0 1 0 1 10000
0 1 1 1 1 0 0
1 1 0 0 0 1 10000
1 0 1 1 1 0 0
1 1 1 1 1 1 0
1 0 0 0 1 1 10000
10 3 4 5 6 7 0 19 10 14 16 0 1024
1 0 1 1 1 0 0 0 1 1 10000
0 1 1 0 0 1 0 0 0 1 0
1 1 1 1 1 1 0 1 1 1 10000
1 1 1 0 1 1 1 1 1 1 10000
1 0 1 1 0 0 0 0 0 1 10000
1 0 1 1 1 0 0 1 0 0 10000
1 0 1 0 1 1 1 1 0 1 10000
0 0 0 1 1 1 0 0 0 1 0
1 0 0 0 0 0 0 1 0 0 0
1 0 0 1 1 1 0 0 1 0 10000
1 1 0 1 0 1 1 1 0 1 10000
0 0 1 1 1 0 0 1 1 1 0
1 0 0 0 0 0 0 0 1 1 10000
1 1 1 0 0 1 0 0 1 0 10000
0 0 1 1 1 0 0 0 0 0 10000
1 0 0 0 0 1 1 0 1 0 10000
1 0 0 1 0 1 0 1 1 0 10000
0 0 1 1 1 0 1 1 1 0 0
0 0 1 1 1 1 1 0 0 1 0
1 1 1 1 1 0 1 0 1 0 10000
0 1 0 0 0 1 0 0 0 1 10000
1 0 0 1 0 1 1 0 0 0 0
1 1 1 0 1 1 0 1 1 0 10000
1 0 0 1 0 0 1 1 1 1 10000
0 1 1 0 1 0 1 1 0 1 0
1 1 0 0 0 0 0 0 0 1 10000
1 0 0 1 0 1 1 1 1 1 10000
1 0 0 1 0 0 1 0 0 0 10000
1 1 1 0 1 1 1 0 0 0 10000
1 0 1 1 1 0 1 1 0 1 10000
0 0 0 1 0 0 1 1 0 1 10000
1 1 1 1 0 1 0 0 0 0 10000
0 1 0 0 1 1 0 1 0 1 10000
1 0 0 1 0 0 0 1 1 0 0
1 1 1 0 1 0 1 0 0 0 10000
1 0 1 0 1 1 0 1 0 0 10000
1 0 1 1 1 1 1 1 0 0 10000
0 1 0 0 1 0 1 1 0 0 0
1 0 1 0 1 0 0 1 0 1 10000
0 1 0 0 1 0 1 0 1 1 10000
1 0 0 1 1 0 1 0 1 0 10000
1 0 1 1 1 0 0 1 0 1 10000
1 1 0 1 0 0 0 1 0 1 10000
1 0 1 0 1 1 1 1 0 0 0
1 1 1 0 0 0 1 0 1 0 10000
1 0 0 0 1 0 0 0 1 0 10000
1 0 1 0 1 1 1 0 1 1 10000
1 0 0 0 0 0 1 1 0 1 10000
1 1 0 1 0 1 1 1 0 0 0
1 0 0 0 0 0 0 0 1 0 0
1 0 0 1 1 1 0 1 0 0 10000
1 1 1 0 0 1 0 0 1 1 0
1 1 0 1 0 1 1 0 1 1 10000
0 0 1 1 1 0 0 0 0 1 10000
0 1 0 0 0 0 1 0 0 1 10000
1 1 1 1 0 1 0 0 1 0 10000
0 1 0 0 0 1 1 1 1 0 10000
1 0 0 1 0 1 0 1 1 1 10000
1 1 1 1 0 1 0 0 1 1 10000
1 1 0 0 0 1 1 0 0 1 10000
1 1 1 1 0 1 1 1 1 0 0
1 1 0 0 0 0 1 1 1 0 10000
1 0 0 1 0 1 0 0 0 0 10000
0 1 0 0 0 1 0 0 0 0 0
1 1 1 0 1 1 0 1 1 1 0
0 1 1 1 0 1 1 0 0 0 10000
1 1 0 0 0 0 0 0 0 0 10000
0 1 0 0 0 1 0 1 1 1 10000
1 0 0 1 0 1 1 1 1 0 10000
1 1 1 0 1 1 0 0 0 0 10000
1 0 0 1 0 0 1 0 0 1 0
0 1 1 0 0 0 1 1 0 1 10000
1 0 1 0 0 0 0 1 0 1 0
0 1 0 0 1 1 0 1 0 0 0
0 1 0 1 0 0 0 0 1 0 10000
1 1 1 0 1 0 1 0 0 1 10000
0 0 0 1 1 0 1 1 0 1 10000
0 1 0 0 1 1 0 0 1 1 10000
1 0 0 0 1 0 0 0 0 1 10000
1 0 0 0 0 0 1 1 1 0 10000
0 0 1 0 1 0 0 0 1 0 10000
1 0 1 0 1 0 0 1 0 0 10000
0 1 0 0 1 0 1 0 1 0 0
1 0 0 1 1 0 1 0 1 1 0
1 0 1 0 1 0 0 0 1 1 10000
1 1 0 1 0 0 0 1 0 0 10000
1 1 0 0 1 1 0 0 1 0 10000
1 0 0 1 1 0 1 1 0 0 10000
1 1 0 1 1 1 0 1 1 1 0
1 1 0 1 0 0 0 0 1 1 10000
1 0 1 0 1 1 1 0 1 0 0
0 1 0 0 0 0 0 1 1 0 10000
1 0 0 1 1 1 0 1 0 1 0
1 1 0 1 0 1 0 1 1 1 10000
0 1 1 0 1 1 0 0 0 1 10000
1 1 0 1 0 1 1 0 1 0 0
1 1 0 0 0 1 0 1 1 0 10000
0 1 0 0 0 0 1 0 0 0 0
0 1 0 0 0 1 1 1 1 1 10000
0 0 0 1 0 1 0 0 0 1 10000
1 1 0 0 0 1 1 0 0 0 0
0 1 0 0 0 0 1 1 1 1 10000
1 1 0 0 0 0 1 1 1 1 10000
0 1 0 0 0 1 1 0 0 0 10000
1 0 0 1 0 1 0 0 0 1 0
1 0 0 0 1 0 0 1 1 1 10000
0 1 1 0 0 1 0 1 0 1 10000
1 1 0 0 0 0 1 0 0 0 10000
0 1 0 0 0 1 0 1 1 0 10000
0 1 0 1 0 1 1 0 1 0 10000
1 1 1 0 1 1 0 0 0 1 10000
0 0 0 1 1 1 0 1 0 1 10000
0 1 1 0 0 0 1 1 0 0 0
0 0 1 0 1 1 1 0 1 0 10000
0 1 0 1 0 0 0 0 1 1 0
0 1 1 0 0 0 1 0 1 1 10000
0 0 0 1 1 0 1 1 0 0 0
0 1 0 0 1 1 0 0 1 0 0
0 1 0 1 0 0 0 1 0 0 10000
0 0 1 0 1 0 0 0 1 1 0
0 0 0 1 1 0 1 0 1 1 10000
1 1 0 0 1 0 1 0 1 0 10000
0 0 1 0 1 0 0 1 0 0 10000
1 0 1 0 1 0 0 0 1 0 10000
0 0 1 1 1 1 1 1 0 1 10000
1 1 0 1 1 1 1 1 0 1 0
1 1 0 0 1 1 0 0 1 1 0
1 0 0 1 1 0 1 1 0 1 0
0 1 1 0 1 0 1 0 0 1 10000
1 1 0 1 0 0 0 0 1 0 10000
0 1 1 0 1 1 1 1 1 0 10000
0 1 0 0 0 0 0 1 1 1 10000
1 1 0 0 1 0 1 1 0 1 0
0 0 0 1 0 0 1 0 0 1 10000
0 1 1 0 1 1 0 0 0 0 10000
0 0 0 1 0 1 1 1 1 0 10000
1 1 0 0 0 1 0 1 1 1 10000
0 1 0 0 0 0 0 0 0 0 10000
1 1 0 0 1 0 0 1 0 0 10000
0 1 1 0 1 1 0 1 1 1 10000
1 1 1 0 0 0 0 1 1 1 0
1 1 0 0 0 1 0 0 0 0 10000
0 0 0 1 0 1 0 0 0 0 0
0 1 0 0 0 0 1 1 1 0 10000
0 1 0 0 0 1 1 0 0 1 10000
0 0 0 1 0 1 0 1 1 1 10000
0 1 1 0 0 1 0 1 0 0 0
1 1 0 0 0 0 1 0 0 1 0
1 0 1 1 0 0 0 0 1 0 10000
1 0 1 1 1 0 0 0 0 1 10000
0 1 0 1 0 1 1 0 1 1 10000
0 1 1 0 0 1 0 0 1 1 10000
0 0 0 1 1 1 0 1 0 0 0
0 0 0 0 0 0 0 0 1 0 10000
0 1 0 1 0 1 1 1 0 0 10000
0 0 1 0 1 1 1 0 1 1 10000
0 0 0 1 1 1 0 0 1 1 10000
0 1 1 0 0 0 1 0 1 0 0
1 1 1 1 1 0 0 1 1 0 10000
0 0 1 0 1 1 1 1 0 0 10000
0 1 0 1 0 0 0 1 0 1 0
0 0 1 1 1 0 0 1 0 1 10000
0 0 0 1 1 0 1 0 1 0 0
1 1 0 0 1 0 1 0 1 1 0
1 1 0 0 1 0 1 1 1 0 0
0 0 1 0 1 0 0 1 0 1 0
1 0 0 0 0 1 1 1 1 1 10000
0 1 1 0 1 0 0 1 1 0 10000
0 0 1 1 1 1 1 1 0 0 0
0 0 1 1 1 1 1 0 1 1 10000
0 1 1 0 1 0 1 0 0 0 10000
0 0 0 1 0 0 0 1 1 0 10000
0 1 1 0 1 1 1 1 1 1 10000
1 1 1 0 1 1 1 1 0 0 10000
1 0 0 1 0 0 1 1 0 1 10000
0 1 1 0 1 0 1 1 1 1 10000
0 1 1 0 1 1 1 0 0 0 10000
0 0 0 1 0 0 1 0 0 0 0
0 0 0 1 0 1 1 1 1 1 10000
0 1 0 0 0 0 0 0 0 1 0
1 1 1 0 1 0 1 1 0 1 10000
0 0 0 1 0 0 1 1 1 1 10000
0 1 1 0 1 1 0 1 1 0 0
0 0 0 1 0 1 1 0 0 0 10000
1 1 0 0 0 1 0 0 0 1 0
1 0 1 1 1 1 1 0 0 1 10000
1 0 1 1 1 0 1 1 1 0 10000
1 1 1 0 1 0 1 1 1 1 0
0 0 0 1 0 1 0 1 1 0 10000
0 0 0 0 0 1 1 0 1 0 10000
1 1 1 0 1 0 0 1 1 0 10000
1 0 1 1 1 0 0 0 0 0 10000
0 1 1 0 0 1 0 0 1 0 0
0 0 0 0 0 0 0 0 1 1 10000
1 0 1 1 1 0 0 1 1 1 10000
0 1 0 1 0 1 1 1 0 1 10000
0 0 0 1 1 1 0 0 1 0 0
0 0 0 0 0 0 0 1 0 0 10000
1 1 0 0 1 1 1 0 1 0 0
1 0 0 1 1 1 0 0 0 1 10000
0 0 1 0 1 1 1 1 0 1 10000
1 1 1 1 1 0 0 1 1 1 10000
0 0 1 1 1 0 0 1 0 0 10000
1 1 0 1 1 1 0 0 0 0 10000
1 1 1 0 0 1 0 0 0 1 10000
0 0 1 1 1 0 0 0 1 1 10000
0 1 1 0 1 0 0 1 1 1 0
1 0 0 1 0 1 0 1 0 1 10000
1 1 1 0 1 0 0 1 0 1 10000
1 0 1 1 0 1 0 0 1 0 10000
1 1 1 1 1 0 1 1 1 1 10000
0 1 1 0 1 0 0 0 0 0 10000
0 0 1 1 1 1 1 0 1 0 0
0 0 0 1 0 0 0 1 1 1 10000
1 1 1 0 1 0 1 1 0 0 10000
1 1 1 0 1 1 0 1 0 1 10000
1 0 0 1 0 0 1 1 0 0 0
0 1 1 0 1 0 1 1 1 0 0
0 0 0 1 0 0 0 0 0 0 10000
0 1 1 0 1 1 1 0 0 1 0
1 1 1 1 1 1 0 1 0 1 10000
1 0 0 1 0 0 1 0 1 1 10000
1 0 1 0 1 0 0 1 1 0 10000
1 0 1 1 1 1 0 1 1 0 10000
1 0 1 0 1 0 1 0 1 1 0
0 0 0 1 0 0 1 1 1 0 10000
0 0 0 1 0 1 1 0 0 1 10000
1 1 1 0 1 0 1 0 1 1 10000
1 0 1 1 1 1 1 0 0 0 10000
1 0 1 1 1 0 1 1 1 1 0
0 0 0 0 0 1 1 0 1 1 10000
1 0 1 1 1 1 1 1 1 1 10000
1 0 1 1 1 0 1 0 0 0 10000
0 0 0 0 0 1 1 1 0 0 10000
1 0 0 1 1 0 1 0 0 1 10000
1 0 1 1 1 0 0 1 1 0 10000
1 0 0 1 1 1 1 1 1 0 10000
1 1 1 1 1 1 0 1 0 0 10000
0 0 0 0 0 0 0 1 0 1 10000
1 0 1 1 1 1 0 1 0 1 10000
1 1 1 0 0 0 1 0 0 1 10000
1 0 0 1 1 1 0 0 0 0 10000
1 1 1 0 0 1 1 1 1 0 10000
1 0 1 0 1 0 1 1 0 0 10000
1 0 0 1 1 1 0 1 1 1 10000
1 0 1 1 0 0 1 0 1 0 10000
1 1 0 0 0 0 0 1 0 1 0
0 0 1 1 1 0 0 0 1 0 10000
0 1 0 0 0 1 1 1 0 1 10000
1 0 0 1 0 1 0 1 0 0 0
1 0 1 1 0 1 0 0 1 1 0
0 1 1 0 1 0 0 0 0 1 10000
1 1 0 0 0 0 1 1 0 1 10000
1 0 0 1 0 1 0 0 1 1 10000
1 0 1 1 0 1 0 1 0 0 10000
1 1 1 0 1 1 0 1 0 0 10000
1 1 1 1 0 0 0 0 1 0 10000
0 0 0 1 0 0 0 0 0 1 0
1 0 0 0 1 1 1 0 1 0 10000
1 1 1 0 1 1 0 0 1 1 10000
1 0 0 1 0 0 1 0 1 0 0
1 0 1 1 1 1 0 1 1 1 0
0 1 0 1 0 0 0 0 0 1 10000
1 1 1 0 1 0 1 0 1 0 10000
1 0 1 1 1 1 1 1 1 0 0
0 0 1 0 1 0 0 0 0 1 10000
1 0 1 1 1 0 1 0 0 1 10000
0 0 0 0 0 1 1 1 0 1 10000
1 0 0 1 1 0 1 0 0 0 10000
0 1 1 1 1 0 0 0 1 0 10000
1 0 0 1 1 1 1 1 1 1 10000
1 1 1 1 0 1 0 0 0 1 10000
1 1 0 0 1 1 0 0 0 1 10000
1 0 0 1 1 0 1 1 1 1 10000
1 0 1 0 1 1 0 1 0 1 0
1 0 0 1 1 1 1 0 0 0 10000
1 1 1 0 0 0 1 0 0 0 10000
1 1 1 0 0 1 1 1 1 1 10000
0 1 0 0 0 0 0 1 0 1 10000
1 0 0 1 1 1 0 1 1 0 0
1 1 1 0 0 1 1 0 0 0 10000
1 0 1 1 0 0 1 0 1 1 0
1 0 0 0 1 1 1 0 0 1 10000
1 1 0 0 0 1 0 1 0 1 10000
1 0 0 0 1 1 1 1 0 1 10000
1 0 1 1 0 0 1 1 0 0 10000
0 1 0 0 0 1 1 1 0 0 10000
1 1 1 1 0 1 1 0 1 0 10000
1 1 0 0 0 0 1 1 0 0 0
0 1 0 0 0 1 1 0 1 1 10000
1 0 0 0 1 0 0 0 1 1 0
1 0 1 1 0 1 0 1 0 1 0
1 1 1 1 0 0 0 0 1 1 10000
1 1 0 0 0 0 1 0 1 1 10000
0 1 0 1 0 1 1 0 0 1 10000
1 1 1 0 1 1 0 0 1 0 10000
0 1 0 1 0 0 1 1 1 0 10000
1 0 0 1 1 1 0 0 1 1 0
1 1 0 1 0 0 1 1 1 1 10000
0 0 1 0 1 1 1 0 0 1 10000
0 1 0 1 0 0 0 0 0 0 10000
0 0 1 0 1 0 1 1 1 0 10000
0 1 0 1 0 0 0 1 1 1 10000
0 1 1 1 1 1 1 0 1 0 10000
0 0 1 0 1 0 0 0 0 0 10000
1 1 0 1 0 1 0 1 0 1 0
1 1 0 0 1 0 1 0 0 1 10000
1 1 0 0 1 1 1 1 1 0 10000
0 0 1 0 1 0 0 1 1 1 10000
0 1 1 1 1 0 0 0 1 1 10000
1 0 0 0 1 0 0 1 0 0 10000
1 1 0 0 1 1 0 0 0 0 10000
1 0 1 0 0 1 1 1 0 1 10000
1 0 0 1 1 0 1 1 1 0 0
0 1 1 1 1 0 0 1 0 0 10000
1 0 0 1 1 1 1 0 0 1 0
0 1 1 0 1 1 1 1 0 1 10000
1 0 0 0 1 0 0 0 0 0 10000
0 1 0 0 0 0 0 1 0 0 0
0 1 0 1 1 1 0 0 1 0 10000
1 1 1 0 0 1 1 0 0 1 0
0 0 0 1 0 1 1 1 0 1 10000
1 1 0 0 0 1 0 1 0 0 0
0 1 0 0 0 0 0 0 1 1 10000
1 1 1 1 0 0 1 0 1 0 10000
1 0 1 1 0 0 1 1 0 1 0
0 0 1 0 0 1 0 0 1 0 10000
1 1 1 1 0 1 1 0 1 1 0
1 1 0 0 0 1 0 0 1 1 10000
0 1 0 0 0 1 1 0 1 0 10000
0 1 0 1 0 1 0 1 1 0 10000
1 1 0 0 0 0 1 0 1 0 0
0 1 0 1 0 1 1 0 0 0 0
0 0 1 0 1 1 0 1 1 0 10000
0 1 0 1 0 0 1 1 1 1 10000
0 0 0 0 0 0 0 0 0 1 10000
1 1 0 0 0 1 1 0 1 0 10000
0 1 0 1 0 1 1 1 1 1 10000
0 1 0 1 0 0 1 0 0 0 10000
0 0 1 0 1 1 1 0 0 0 0
0 0 1 0 1 0 1 1 1 1 10000
1 1 0 0 1 0 0 1 1 0 10000
0 0 1 0 1 1 1 1 1 1 10000
0 1 0 1 0 0 0 1 1 0 0
0 0 1 0 1 0 1 0 0 0 10000
0 1 1 1 1 1 1 0 1 1 0
1 1 0 0 1 0 1 0 0 0 10000
1 1 0 0 1 1 1 1 1 1 10000
0 1 1 1 1 1 1 1 0 0 10000
0 0 1 0 1 0 0 1 1 0 0
1 1 1 1 1 0 0 0 0 0 10000
0 1 1 0 1 0 0 1 0 1 10000
1 1 0 0 1 1 1 0 0 0 10000
1 1 1 0 0 1 0 1 0 0 10000
0 1 0 1 1 0 1 0 1 0 10000
0 1 1 1 1 0 0 1 0 1 10000
0 0 0 1 0 0 0 1 0 1 10000
0 1 1 0 1 1 1 1 0 0 0
1 1 1 0 0 1 0 0 0 0 10000
0 0 1 0 0 0 1 0 1 0 10000
0 1 0 1 1 1 0 0 1 1 0
0 1 1 0 1 1 1 0 1 1 10000
0 0 0 1 0 1 1 1 0 0 10000
0 1 0 0 0 0 0 0 1 0 0
0 1 0 1 1 1 0 1 0 0 10000
1 1 0 1 1 1 0 0 0 1 10000
0 0 1 0 0 1 0 0 1 1 10000
0 0 0 1 0 1 1 0 1 1 10000
1 1 0 0 0 1 0 0 1 0 0
0 0 1 0 0 1 0 1 0 0 10000
0 1 0 1 0 1 0 1 1 1 10000
0 0 0 0 0 1 1 0 0 1 10000
0 0 0 0 0 0 1 1 1 0 10000
0 1 0 1 0 1 0 0 0 0 10000
0 0 1 0 1 1 0 1 1 1 10000
0 0 0 0 0 0 0 0 0 0 0
0 1 0 1 0 1 1 1 1 0 10000
0 0 1 0 1 1 0 0 0 0 10000
0 1 0 1 0 0 1 0 0 1 0
1 1 1 0 0 1 0 1 1 1 10000
0 0 0 0 0 0 0 1 1 1 10000
1 1 0 0 1 0 0 1 1 1 0
0 0 1 0 1 1 1 1 1 0 10000
0 0 1 0 1 0 1 0 0 1 0
1 1 0 0 1 0 0 0 0 0 10000
0 1 1 1 1 1 1 1 0 1 0
0 1 1 0 1 0 0 1 0 0 10000
1 1 0 0 1 1 1 0 0 1 0
1 0 1 1 0 1 0 0 0 1 10000
0 1 0 1 1 0 1 0 1 1 0
0 1 1 0 1 0 0 0 1 1 10000
1 1 0 0 0 0 0 1 0 0 10000
0 0 0 1 0 0 0 1 0 0 0
0 0 0 0 1 1 0 0 1 0 10000
0 1 0 1 1 0 1 1 0 0 10000
0 0 1 0 0 0 1 0 1 1 10000
0 0 0 1 0 0 0 0 1 1 10000
0 1 1 0 1 1 1 0 1 0 0
1 0 0 0 1 1 1 0 0 0 0
0 0 1 0 0 0 1 1 0 0 10000
0 1 0 1 1 1 0 1 0 1 0
1 0 0 1 0 1 0 0 1 0 0
0 0 0 1 0 1 1 0 1 0 10000
0 0 0 0 0 1 0 1 1 0 10000
1 1 1 0 0 0 1 1 0 1 0
0 0 1 0 0 1 0 1 0 1 10000
0 0 0 0 0 1 1 0 0 0 10000
0 0 0 0 0 0 1 1 1 1 10000
1 0 1 1 1 0 1 0 1 1 10000
0 1 0 1 0 1 0 0 0 1 0
0 0 0 0 0 1 1 1 1 1 10000
0 0 0 0 0 0 1 0 0 0 10000
1 0 0 1 1 1 1 1 0 1 10000
0 0 1 0 1 1 0 0 0 1 0
1 1 1 1 1 0 1 1 0 1 10000
0 0 0 0 0 0 0 1 1 0 10000
1 1 0 0 0 0 0 1 1 1 10000
1 1 1 0 0 1 1 1 0 1 10000
1 1 1 1 1 0 0 1 0 0 10000
1 1 1 1 1 1 1 1 0 0 10000
1 1 0 0 1 0 0 0 0 1 10000
1 0 1 1 0 0 1 0 0 1 10000
1 0 1 1 0 1 1 1 1 0 10000
0 0 0 0 1 0 1 0 1 0 10000
1 0 1 1 0 1 0 0 0 0 10000
0 1 1 0 1 0 0 0 1 0 10000
1 0 0 0 0 1 0 0 1 0 10000
0 0 0 0 1 1 0 0 1 1 10000
1 0 1 1 0 1 0 1 1 1 10000
0 1 0 1 1 0 1 1 0 1 0
1 1 1 1 0 0 0 0 0 1 10000
1 1 1 0 1 1 1 1 1 0 0
0 0 0 1 0 0 0 0 1 0 0
0 0 0 0 1 1 0 1 0 0 10000
0 0 1 0 0 0 1 1 0 1 10000
1 0 1 0 0 0 0 0 1 0 10000
0 0 0 0 0 1 0 1 1 1 10000
1 0 1 1 1 1 0 0 1 1 10000
1 1 1 1 1 0 1 1 1 0 10000
1 1 0 1 1 0 0 0 1 0 10000
0 0 0 0 0 1 0 0 0 0 10000
1 0 0 1 1 0 0 1 0 1 10000
1 0 1 1 1 0 1 0 1 0 10000
0 0 0 0 0 1 1 1 1 0 10000
0 0 0 0 0 0 1 0 0 1 10000
0 1 1 1 1 0 0 0 0 1 10000
1 0 0 1 1 1 1 1 0 0 0
1 0 0 1 1 1 1 0 1 1 10000
1 0 1 1 0 0 0 1 1 0 10000
1 0 0 0 0 1 0 0 0 1 10000
1 1 1 0 0 1 1 0 1 1 10000
1 0 1 1 0 0 1 0 0 0 10000
1 0 1 1 0 1 1 1 1 1 10000
1 0 1 1 1 1 0 0 0 0 10000
0 0 0 0 1 0 1 0 1 1 10000
1 0 1 1 0 0 1 1 1 1 10000
1 0 1 1 0 1 1 0 0 0 10000
1 1 1 1 0 0 1 1 1 0 10000
0 0 0 0 1 0 1 1 0 0 10000
1 0 1 1 1 1 0 1 0 0 10000
1 0 1 1 0 1 0 1 1 0 0
1 0 1 0 0 1 1 0 1 0 10000
1 0 1 0 1 0 0 0 0 0 10000
1 0 1 0 1 0 1 1 0 1 0
1 0 1 1 1 1 1 1 0 1 0
0 0 0 0 1 1 0 1 0 1 10000
0 1 0 1 0 0 1 1 0 1 10000
1 1 0 1 1 1 1 0 1 0 10000
1 0 1 0 0 0 0 0 1 1 0
1 0 1 1 1 1 0 0 1 0 10000
0 0 1 0 1 0 1 1 0 1 10000
1 1 0 1 1 0 0 0 1 1 10000
0 0 0 0 0 1 0 0 0 1 10000
0 1 1 1 1 1 1 0 0 1 10000
1 0 0 1 1 0 0 1 0 0 10000
0 1 1 1 1 0 1 1 1 0 10000
1 0 0 0 1 1 1 0 1 1 10000
1 1 0 0 1 1 1 1 0 1 10000
1 0 0 1 1 0 0 0 1 1 10000
0 1 1 1 1 0 0 0 0 0 10000
1 1 1 1 1 1 0 0 1 0 10000
0 1 1 1 1 0 0 1 1 1 10000
1 0 0 1 1 0 0 1 1 0 10000
1 0 1 1 0 0 0 1 1 1 0
1 1 0 0 0 1 1 1 0 0 10000
0 1 0 1 1 1 0 0 0 1 10000
1 1 1 0 0 1 1 0 1 0 0
1 1 1 1 0 1 0 1 1 0 10000
1 1 0 1 0 0 0 0 0 0 10000
1 0 1 1 0 0 1 1 1 0 0
0 0 1 0 0 1 0 0 0 1 10000
1 0 1 1 0 1 1 0 0 1 0
1 1 1 1 0 0 1 1 1 1 0
0 0 0 0 1 0 1 1 0 1 10000
0 1 0 1 0 1 0 1 0 1 10000
1 0 0 0 1 1 1 1 0 0 10000
0 1 1 1 0 1 0 0 1 0 10000
1 0 1 0 0 1 1 0 1 1 10000
1 1 0 1 0 0 1 1 0 0 10000
0 0 1 0 1 1 0 1 0 1 10000
0 1 0 1 0 0 1 1 0 0 0
1 1 0 1 1 1 1 0 1 1 0
0 1 0 1 0 0 1 0 1 1 10000
0 1 1 1 1 1 0 1 1 0 10000
0 0 1 0 1 0 1 1 0 0 0
1 1 0 0 1 0 0 1 0 1 10000
1 1 0 1 0 1 0 1 0 0 10000
0 0 1 0 1 0 1 0 1 1 10000
0 1 1 1 1 1 1 0 0 0 10000
1 1 0 1 0 1 0 1 1 0 0
0 1 1 1 1 0 1 1 1 1 0
1 1 1 0 0 0 0 1 1 0 10000
1 1 0 0 1 1 1 1 0 0 0
0 1 1 1 1 1 1 1 1 1 10000
1 0 0 1 1 0 0 0 1 0 10000
0 1 1 1 1 0 1 0 0 0 10000
1 1 1 1 1 1 0 0 1 1 10000
1 1 0 0 1 1 1 0 1 1 10000
1 1 0 1 0 0 1 1 1 0 0
0 1 0 1 1 0 1 0 0 1 10000
0 1 1 1 1 0 0 1 1 0 10000
0 1 0 1 1 1 1 1 1 0 10000
1 0 0 0 1 1 1 1 1 1 10000
0 0 1 0 0 0 1 0 0 1 10000
0 1 0 1 1 1 0 0 0 0 10000
0 0 1 0 0 1 1 1 1 0 10000
1 1 1 1 0 1 0 1 1 1 0
0 1 0 1 1 1 0 1 1 1 10000
0 1 1 1 0 0 1 0 1 0 10000
0 0 1 0 0 1 0 0 0 0 0
0 0 1 0 0 1 0 1 1 1 10000
0 1 0 1 0 1 0 1 0 0 0
0 1 1 1 0 1 0 0 1 1 0
0 0 0 0 0 0 1 1 0 1 10000
0 1 0 1 0 1 0 0 1 1 10000
0 1 1 1 0 1 0 1 0 0 10000
0 0 1 0 1 1 0 1 0 0 0
0 0 1 1 0 0 0 0 1 0 10000
0 0 1 0 1 1 0 0 1 1 10000
0 1 0 1 0 0 1 0 1 0 0
0 1 1 1 1 1 0 1 1 1 0
0 1 1 1 0 1 1 0 0 1 0
1 1 1 0 0 0 0 1 0 1 10000
0 1 1 1 1 1 0 0 0 0 10000
0 0 1 0 1 0 1 0 1 0 0
1 1 1 1 1 0 1 0 1 1 10000
1 1 0 0 1 0 0 0 1 1 10000
0 1 1 1 1 1 1 1 1 0 0
0 1 0 1 1 0 0 1 1 0 10000
0 1 1 1 1 0 1 0 0 1 10000
1 0 1 0 1 0 0 1 1 1 0
1 0 0 0 1 0 0 1 1 0 0
0 1 0 1 1 0 1 0 0 0 10000
0 0 1 0 0 0 0 1 1 0 10000
0 1 0 1 1 1 1 1 1 1 10000
0 0 0 0 1 1 0 0 0 1 10000
0 1 0 1 1 0 1 1 1 1 10000
1 1 1 0 0 0 1 1 1 1 10000
0 1 0 1 1 1 1 0 0 0 10000
0 0 1 0 0 0 1 0 0 0 0
0 0 1 0 0 1 1 1 1 1 10000
0 0 1 0 0 0 1 1 1 1 10000
0 1 0 1 1 1 0 1 1 0 0
0 0 1 0 0 1 1 0 0 0 10000
0 1 1 1 0 0 1 0 1 1 0
1 1 1 0 0 1 0 1 0 1 0
0 0 0 0 0 1 0 1 0 1 10000
1 0 0 0 1 0 1 1 1 0 10000
0 1 1 1 0 0 1 1 0 0 10000
0 0 1 0 0 1 0 1 1 0 10000
0 0 1 1 0 1 1 0 1 0 10000
1 1 1 0 0 1 1 1 0 0 0
0 0 0 0 0 0 1 1 0 0 10000
0 1 0 1 0 1 0 0 1 0 0
0 1 1 1 0 1 0 1 0 1 0
0 0 1 1 0 0 0 0 1 1 0
0 0 0 0 0 0 1 0 1 1 10000
1 1 0 1 0 0 1 1 0 1 0
0 0 1 0 1 1 0 0 1 0 0
0 0 1 1 0 0 0 1 0 0 10000
0 1 1 1 1 1 0 0 0 1 10000
1 1 0 0 1 0 0 0 1 0 10000
1 0 1 1 0 1 1 1 0 1 10000
0 1 0 1 1 0 0 1 1 1 0
0 0 0 0 1 0 1 0 0 1 10000
0 0 0 0 1 1 1 1 1 0 10000
0 1 0 1 1 0 0 0 0 0 10000
1 1 1 0 0 1 0 1 1 0 0
0 0 1 0 0 0 0 1 1 1 10000
0 0 0 0 1 1 0 0 0 0 0
1 1 0 1 1 1 1 1 1 0 0
0 1 0 1 1 0 1 1 1 0 0
0 0 1 0 0 0 0 0 0 0 10000
0 1 0 1 1 1 1 0 0 1 0
0 0 0 0 1 1 0 1 1 1 10000
1 1 0 0 0 1 1 1 1 1 10000
1 0 0 0 1 1 0 1 1 0 10000
0 0 1 0 0 0 1 1 1 0 10000
1 0 1 0 0 0 0 0 0 1 10000
0 0 1 0 0 1 1 0 0 1 10000
0 0 0 0 0 1 0 1 0 0 10000
1 0 0 0 1 0 1 1 1 1 10000
0 1 1 1 0 0 1 1 0 1 0
1 1 0 1 1 0 0 0 0 1 10000
0 0 1 1 0 1 1 0 1 1 10000
0 0 0 0 0 1 0 0 1 1 10000
1 0 0 0 1 0 1 0 0 0 10000
0 0 1 1 0 1 1 1 0 0 10000
1 0 0 0 0 0 1 0 1 0 10000
0 0 0 0 0 0 1 0 1 0 10000
1 1 1 1 1 0 0 0 1 0 10000
0 0 1 1 0 0 0 1 0 1 0
1 0 1 1 1 0 1 1 0 0 10000
1 0 1 1 0 0 0 1 0 1 10000
1 1 1 1 0 1 1 0 0 1 10000
0 0 0 0 1 0 0 1 1 0 10000
1 0 1 1 0 1 1 1 0 0 0
0 0 0 0 1 0 1 0 0 0 0
0 0 0 0 1 1 1 1 1 1 10000
1 0 1 1 0 1 1 0 1 1 10000
0 1 0 1 1 0 0 0 0 1 10000
1 1 1 1 0 0 1 1 0 1 10000
0 0 0 0 1 0 1 1 1 1 10000
0 0 0 0 1 1 1 0 0 0 10000
1 1 0 0 0 0 0 1 1 0 0
1 0 1 0 0 1 1 0 0 1 10000
0 0 1 0 0 0 0 0 0 1 0
1 0 1 0 0 0 1 1 1 0 10000
0 0 0 0 1 1 0 1 1 0 10000
1 0 0 0 0 0 1 0 0 1 10000
1 1 0 1 1 1 1 0 0 1 10000
1 0 1 0 0 0 0 0 0 0 10000
1 1 0 1 1 0 1 1 1 0 10000
1 0 0 0 1 1 0 0 0 0 10000
1 0 1 0 0 0 0 1 1 1 10000
1 0 0 0 0 1 0 0 1 1 10000
0 0 0 0 0 1 0 0 1 0 10000
1 0 0 0 1 0 1 0 0 1 0
1 1 1 1 1 0 0 0 0 1 10000
0 1 1 1 1 0 1 1 0 1 10000
0 0 1 1 0 1 1 1 0 1 10000
1 1 1 1 0 0 0 1 0 0 10000
0 1 0 0 1 0 0 0 1 0 10000
1 1 1 1 1 1 0 0 0 1 10000
1 1 1 1 0 0 0 0 0 0 10000
1 0 1 1 0 0 0 1 0 0 10000
1 0 1 0 1 1 0 0 1 0 10000
0 0 0 0 1 0 0 1 1 1 10000
1 0 1 1 0 0 0 0 1 1 10000
1 1 1 1 0 1 0 1 0 1 10000
1 1 1 0 0 0 0 0 1 0 10000
1 1 0 1 0 1 0 0 1 0 10000
0 0 0 0 1 0 0 0 0 0 10000
1 0 0 0 0 1 0 1 0 0 10000
1 0 1 1 0 1 1 0 1 0 0
1 0 1 0 0 1 0 1 1 0 10000
1 1 1 1 0 0 1 1 0 0 10000
0 0 0 0 1 0 1 1 1 0 10000
0 0 0 0 1 1 1 0 0 1 10000
1 0 0 0 0 1 0 0 0 0 0
0 1 1 1 0 1 0 0 0 1 10000
1 0 1 0 0 1 1 0 0 0 0
1 1 0 1 1 1 0 1 1 0 10000
1 0 1 0 0 0 1 1 1 1 10000
1 0 1 0 0 1 1 1 1 1 10000
1 1 1 1 0 0 0 1 1 1 10000
1 0 1 0 0 0 1 0 0 0 10000
1 0 1 1 1 1 0 0 0 1 10000
1 1 0 1 1 0 1 1 1 1 0
1 0 0 0 1 1 0 0 0 1 0
1 1 1 0 1 0 0 0 1 0 10000
0 1 1 1 1 1 0 1 0 1 10000
1 0 1 0 0 0 0 1 1 0 0
1 1 0 1 1 0 1 0 0 0 10000
0 1 0 0 1 1 1 0 1 0 10000
1 0 1 0 1 0 0 0 0 1 10000
1 1 1 1 1 0 1 0 0 1 10000
0 1 1 1 1 0 1 1 0 0 10000
1 1 1 1 1 1 1 1 1 0 10000
0 1 0 0 1 0 0 0 1 1 0
0 1 1 1 1 0 1 0 1 1 10000
1 0 1 0 1 0 1 0 1 0 10000
1 1 1 1 1 1 0 0 0 0 10000
1 1 0 0 0 1 1 1 1 0 10000
1 0 0 0 0 1 0 1 1 1 10000
0 1 0 0 1 0 0 1 0 0 10000
0 1 0 1 1 1 1 1 0 1 10000
1 1 0 1 0 0 1 0 1 0 10000
1 0 1 0 1 1 0 0 1 1 0
1 0 0 0 1 1 0 1 1 1 10000
0 0 1 0 0 1 1 1 0 1 10000
1 1 1 1 0 1 0 1 0 0 10000
1 1 0 1 0 1 0 0 1 1 0
0 0 0 0 1 0 0 0 0 1 0
0 1 1 1 0 0 1 0 0 1 10000
0 1 1 1 0 1 1 1 1 0 10000
1 0 1 0 0 1 0 1 1 1 10000
1 0 1 0 0 0 0 1 0 0 10000
1 0 0 1 1 0 0 1 1 1 0
1 0 1 0 0 1 0 0 0 0 10000
0 1 1 1 0 1 0 0 0 0 10000
1 0 1 0 0 0 1 1 0 1 10000
0 1 1 1 0 1 0 1 1 1 10000
1 0 1 0 0 1 1 1 1 0 10000
0 0 1 1 0 0 0 0 0 1 10000
1 0 1 0 0 0 1 0 0 1 0
1 1 0 1 0 0 0 0 0 1 10000
0 1 1 1 1 1 0 1 0 0 10000
0 1 1 0 0 0 0 0 1 0 10000
1 1 0 1 1 0 1 0 0 1 10000
0 1 0 0 1 1 1 0 1 1 10000
0 1 1 1 1 1 0 0 1 1 10000
1 1 1 1 1 0 1 0 0 0 10000
0 0 0 1 1 0 0 0 1 0 10000
1 1 1 1 1 1 1 1 1 1 0
0 1 0 0 1 1 1 1 0 0 10000
0 1 0 1 1 0 0 1 0 1 10000
0 1 1 1 1 0 1 0 1 0 10000
1 1 1 1 1 1 1 0 0 0 10000
1 0 0 1 1 0 0 0 0 0 10000
0 1 0 0 1 0 0 1 0 1 0
0 0 1 0 0 0 0 1 0 1 10000
0 1 0 1 1 1 1 1 0 0 0
1 1 0 1 0 0 1 0 1 1 0
1 1 0 1 1 0 0 0 0 0 10000
0 1 0 1 1 1 1 0 1 1 10000
1 1 0 1 1 0 0 1 0 0 10000
0 1 1 1 0 0 0 1 1 0 10000
0 0 1 0 0 1 1 1 0 0 10000
1 1 1 0 1 0 0 1 0 0 10000
0 0 1 0 0 1 1 0 1 1 10000
0 1 1 1 0 0 1 0 0 0 10000
0 1 1 1 0 1 1 1 1 1 10000
1 1 1 1 1 0 1 1 0 0 10000
1 0 0 0 1 0 1 1 0 1 10000
1 1 0 0 1 1 0 1 0 0 10000
0 1 1 1 0 0 1 1 1 1 10000
0 0 1 1 0 1 1 0 0 1 10000
1 0 1 0 0 1 0 0 0 1 0
0 0 1 1 0 0 1 1 1 0 10000
1 0 0 0 1 1 1 1 1 0 10000
0 1 1 1 0 1 0 1 1 0 0
0 1 1 0 0 1 1 0 1 0 10000
0 0 1 1 0 0 0 0 0 0 10000
0 0 1 1 0 0 0 1 1 1 10000
0 0 0 1 1 1 1 0 1 0 10000
0 1 1 0 0 0 0 0 1 1 0
1 1 1 0 0 0 0 0 0 0 10000
0 1 1 1 1 1 0 0 1 0 10000
0 1 1 0 0 0 0 1 0 0 10000
0 0 0 1 1 0 0 0 1 1 0
0 1 0 0 1 1 1 1 0 1 10000
1 1 1 0 0 0 0 1 0 0 10000
0 1 0 1 1 0 0 1 0 0 10000
0 0 0 1 1 0 0 1 0 0 10000
1 1 1 1 1 1 1 0 0 1 10000
0 0 0 0 1 1 1 1 0 1 10000
0 1 0 1 1 0 0 0 1 1 10000
0 0 1 0 0 0 0 1 0 0 0
0 0 1 1 1 1 0 0 1 0 10000
1 1 0 0 1 1 0 1 1 1 10000
0 0 1 0 0 0 0 0 1 1 10000
0 1 0 1 1 1 1 0 1 0 0
0 1 1 1 0 0 0 1 1 1 0
1 0 0 0 1 1 0 1 0 1 10000
0 1 1 1 0 0 0 0 0 0 10000
0 0 1 0 0 1 1 0 1 0 10000
0 0 1 1 0 1 0 1 1 0 10000
1 0 0 0 1 0 1 1 0 0 0
0 1 1 1 0 0 1 1 1 0 0
0 0 1 1 0 1 1 0 0 0 0
0 0 1 1 0 0 1 1 1 1 10000
1 0 0 0 1 0 1 0 1 1 10000
1 1 1 0 0 0 1 1 1 0 0
0 0 1 1 0 1 1 1 1 1 10000
1 0 0 1 1 1 1 0 1 0 0
0 0 1 1 0 0 1 0 0 0 10000
0 1 1 0 0 1 1 0 1 1 10000
1 0 0 0 1 0 0 1 0 1 0
0 1 1 0 0 1 1 1 0 0 10000
0 0 1 1 0 0 0 1 1 0 0
0 0 0 1 1 1 1 0 1 1 10000
1 1 1 0 0 0 1 0 1 1 0
0 0 0 1 1 1 1 1 0 0 10000
0 1 1 0 0 0 0 1 0 1 0
0 0 0 0 1 0 0 1 0 1 10000
1 1 0 0 0 1 1 1 0 1 10000
1 0 0 0 0 1 1 1 1 0 10000
0 0 1 1 1 0 1 0 1 0 10000
0 0 0 1 1 0 0 1 0 1 0
0 0 0 0 1 1 1 1 0 0 10000
0 1 0 1 1 0 0 0 1 0 10000
0 0 1 1 1 1 0 0 1 1 0
0 0 0 0 1 1 1 0 1 1 10000
0 0 1 0 0 0 0 0 1 0 0
0 0 1 1 1 1 0 1 0 0 10000
1 0 0 0 1 1 0 1 0 0 0
1 0 0 1 0 0 0 0 1 0 10000
1 0 1 1 0 0 0 0 0 0 10000
0 1 1 1 0 0 0 0 0 1 10000
1 1 0 1 1 0 1 1 0 1 10000
0 0 1 1 0 1 0 1 1 1 10000
1 0 0 0 1 1 0 0 1 1 10000
1 1 1 0 0 0 0 0 1 1 10000
0 0 1 1 0 1 0 0 0 0 10000
1 1 1 1 0 1 1 1 0 1 0
1 0 1 0 0 1 0 1 0 0 0
1 0 0 0 1 0 1 0 1 0 0
0 0 1 1 0 1 1 1 1 0 10000
0 0 1 1 0 0 1 0 0 1 0
0 1 0 0 1 0 0 0 0 1 10000
0 1 1 0 0 1 1 1 0 1 10000
1 0 0 0 0 0 0 1 1 0 10000
1 0 1 0 1 1 0 0 0 1 10000
0 0 0 1 1 1 1 1 0 1 10000
0 0 0 0 1 0 0 1 0 0 0
1 0 0 0 0 0 1 0 1 1 10000
1 1 0 1 0 1 0 0 0 1 10000
0 0 1 1 1 0 1 0 1 1 0
0 0 0 0 1 0 0 0 1 1 10000
1 1 0 1 1 0 0 1 1 1 10000
1 0 0 0 0 1 1 0 0 0 10000
1 1 1 1 0 1 1 1 0 0 10000
0 0 1 1 1 0 1 1 0 0 10000
0 0 0 0 1 1 1 0 1 0 10000
1 0 0 1 0 1 1 0 1 0 10000
1 1 1 1 0 1 1 0 0 0 10000
1 1 0 1 1 1 0 1 0 1 10000
0 0 1 1 1 1 0 1 0 1 0
1 1 1 0 1 1 1 0 1 0 10000
1 0 0 1 0 0 0 0 1 1 0
1 0 1 0 0 0 1 0 1 1 10000
1 1 0 1 1 0 1 1 0 0 10000
1 0 0 0 1 1 0 0 1 0 0
1 0 0 1 0 0 0 1 0 0 10000
1 1 1 0 1 0 0 0 1 1 10000
1 1 0 1 1 0 1 0 1 1 10000
0 0 1 1 0 1 0 0 0 1 0
1 0 0 0 0 0 1 1 0 0 10000
0 1 0 0 1 1 1 0 0 1 10000
0 1 0 0 1 0 1 1 1 0 10000
1 1 1 1 1 1 1 1 0 1 10000
1 0 1 1 1 1 1 0 1 1 0
1 0 0 0 0 0 1 0 0 0 0
0 1 0 0 1 0 0 0 0 0 10000
1 1 1 1 1 0 0 1 0 1 10000
1 0 1 0 1 0 1 0 0 1 10000
1 0 1 0 1 1 1 1 1 0 10000
0 1 0 0 1 0 0 1 1 1 10000
1 1 1 1 0 1 1 1 1 1 10000
1 0 0 0 0 0 0 1 1 1 10000
1 1 0 1 0 0 1 0 0 1 10000
1 0 1 0 1 1 0 0 0 0 10000
1 1 0 1 0 1 1 1 1 0 10000
1 0 0 0 0 0 0 0 0 0 10000
1 1 1 1 0 0 1 0 0 0 10000
1 0 1 0 1 1 0 1 1 1 10000
1 1 1 1 0 0 0 1 0 1 10000
1 1 0 1 0 1 0 0 0 0 10000
0 0 0 0 1 0 0 0 1 0 0
1 0 0 0 0 1 1 0 0 1 10000
0 1 1 1 0 1 1 1 0 1 10000
0 0 1 1 1 0 1 1 0 1 0
0 1 0 0 0 1 0 0 1 0 10000
1 0 0 1 0 1 1 0 1 1 10000
1 0 1 0 0 1 0 0 1 1 10000
1 0 0 0 0 0 1 1 1 1 10000
1 1 0 1 1 1 0 1 0 0 10000
1 1 0 0 0 0 0 0 1 0 10000
1 0 0 1 0 1 1 1 0 0 10000
1 1 1 0 1 1 1 0 1 1 0
1 1 0 1 1 1 0 0 1 1 10000
1 0 1 0 0 0 1 0 1 0 0
1 1 1 1 0 0 1 0 0 1 10000
1 0 0 0 0 1 0 1 0 1 10000
0 1 0 0 1 1 0 1 1 0 10000
1 0 0 1 0 0 0 1 0 1 0
0 1 1 0 0 0 0 0 0 1 10000
1 1 0 1 1 0 1 0 1 0 10000
0 1 0 0 1 1 1 0 0 0 0
0 1 0 0 1 0 1 1 1 1 10000
1 0 1 0 0 1 1 1 0 0 10000
0 0 0 1 1 0 0 0 0 1 10000
1 1 1 0 0 0 1 1 0 0 10000
0 1 0 0 1 1 1 1 1 1 10000
1 1 1 1 0 0 1 0 1 1 10000
0 1 0 0 1 0 1 0 0 0 10000
1 1 1 1 0 0 0 1 1 0 10000
1 0 1 0 0 1 0 1 0 1 10000
1 1 1 1 1 1 1 0 1 1 10000
1 0 1 0 1 0 1 0 0 0 10000
1 1 0 1 0 0 0 1 1 0 10000
1 0 1 0 1 1 1 1 1 1 10000
0 1 0 0 1 0 0 1 1 0 0
1 0 1 0 1 0 1 1 1 1 10000
1 0 1 0 1 1 1 0 0 0 10000
1 1 0 1 0 0 1 0 0 0 10000
1 1 0 1 0 1 1 1 1 1 10000
1 0 0 0 0 0 0 0 0 1 0
0 1 1 1 0 0 0 1 0 1 10000
1 0 1 0 1 1 0 1 1 0 0
1 1 0 1 0 1 1 0 0 0 10000
0 1 0 0 0 0 1 0 1 0 10000
1 1 0 1 1 0 0 1 0 1 10000
0 1 1 1 0 1 1 1 0 0 0
1 0 0 0 0 1 0 1 1 0 10000
0 1 0 0 0 1 0 0 1 1 10000
0 1 1 1 0 1 1 0 1 1 10000
1 0 1 0 0 1 0 0 1 0 0
0 0 1 1 0 0 1 1 0 1 10000
1 1 0 0 0 0 0 0 1 1 0
0 1 0 0 0 1 0 1 0 0 10000
1 0 0 1 0 1 1 1 0 1 10000
0 1 1 0 0 1 1 0 0 1 10000
1 1 0 1 1 1 0 0 1 0 10000
0 1 1 0 0 0 1 1 1 0 10000
1 1 0 0 1 0 1 1 0 0 10000
1 1 0 1 1 1 1 1 0 0 10000
0 1 0 0 1 1 0 1 1 1 10000
0 0 0 1 1 1 1 0 0 1 10000
0 1 1 0 0 0 0 0 0 0 10000
0 0 0 1 1 0 1 1 1 0 10000
1 1 0 0 1 1 0 1 0 1 0
0 1 0 0 1 1 0 0 0 0 10000
1 1 0 1 1 1 1 0 0 0 10000
0 1 1 0 0 0 0 1 1 1 10000
1 0 1 0 0 0 1 1 0 0 0
0 0 0 1 1 0 0 0 0 0 10000
0 1 0 0 1 1 1 1 1 0 10000
0 1 0 0 1 0 1 0 0 1 0
0 0 0 1 1 0 0 1 1 1 10000
1 1 1 1 1 1 1 0 1 0 10000
1 1 0 1 0 0 0 1 1 1 0
1 0 1 0 1 0 1 1 1 0 0
0 0 1 1 1 1 0 0 0 1 10000
1 0 1 0 1 1 1 0 0 1 0
0 1 1 1 0 0 0 1 0 0 10000
0 1 1 0 1 1 0 0 1 0 10000
1 1 0 1 0 1 1 0 0 1 0
0 1 0 0 0 0 1 0 1 1 10000
0 1 1 1 0 0 0 0 1 1 10000
1 0 0 1 1 0 0 0 0 1 10000
0 0 1 1 0 1 0 1 0 1 10000
1 1 0 1 1 1 1 1 1 1 10000
0 0 0 1 0 1 0 0 1 0 10000
1 1 0 0 0 1 1 0 1 1 10000
0 1 0 0 0 0 1 1 0 0 10000
0 1 1 1 0 1 1 0 1 0 0
0 1 1 0 0 1 0 1 1 0 10000
0 0 1 1 0 0 1 1 0 0 0
0 1 0 0 0 1 0 1 0 1 10000
1 1 0 0 1 0 1 1 1 1 10000
0 0 1 1 0 0 1 0 1 1 10000
0 1 1 0 0 1 1 0 0 0 0
0 0 0 1 1 1 0 1 1 0 10000
0 1 1 0 0 0 1 1 1 1 10000
0 1 1 0 0 1 1 1 1 1 10000
0 1 1 0 0 0 1 0 0 0 10000
0 0 0 1 1 1 1 0 0 0 0
0 0 0 1 1 0 1 1 1 1 10000
0 1 0 0 1 1 0 0 0 1 0
0 0 0 1 1 1 1 1 1 1 10000
0 1 1 0 0 0 0 1 1 0 0
0 0 0 1 1 0 1 0 0 0 10000
1 0 0 0 0 1 1 1 0 1 10000
1 1 1 0 1 1 1 1 0 1 0
0 0 1 1 1 0 1 0 0 1 10000
0 0 0 1 1 0 0 1 1 0 0
0 0 1 1 1 1 1 1 1 0 10000
0 1 1 0 1 0 1 0 1 0 10000
0 0 1 1 1 1 0 0 0 0 10000
1 1 1 0 0 0 0 0 0 1 10000
0 0 1 1 1 1 0 1 1 1 10000
0 0 0 1 0 0 1 0 1 0 10000
0 1 1 0 1 1 0 0 1 1 0
1 0 0 1 0 0 0 0 0 1 10000
0 1 1 1 0 0 0 0 1 0 10000
0 1 1 0 1 1 0 1 0 0 10000
0 0 1 1 0 1 0 1 0 0 0
0 0 0 1 0 1 0 0 1 1 10000
0 1 0 0 0 0 1 1 0 1 10000
1 1 1 0 1 0 0 0 0 1 10000
0 0 1 1 0 1 0 0 1 1 10000
1 1 0 0 1 1 0 1 1 0 0
0 0 0 1 0 1 0 1 0 0 10000
0 1 1 0 0 1 0 1 1 1 10000
1 0 1 1 1 0 0 0 1 0 10000
0 1 1 0 0 1 0 0 0 0 10000
0 0 1 1 0 0 1 0 1 0 0
0 0 0 1 1 1 0 1 1 1 10000
0 1 1 0 0 1 1 1 1 0 10000
0 0 0 1 1 1 0 0 0 0 10000
0 1 1 0 0 0 1 0 0 1 0
1 0 0 0 0 0 0 1 0 1 10000
0 0 0 1 1 1 1 1 1 0 10000
0 0 1 1 1 0 0 1 1 0 10000
0 0 0 1 1 0 1 0 0 1 0
1 1 1 1 1 1 0 1 1 0 10000
1 0 0 0 0 1 1 1 0 0 10000
1 1 1 1 1 0 0 0 1 1 10000
0 0 1 1 1 0 1 0 0 0 10000
0 0 1 1 1 1 1 1 1 1 10000
1 0 0 0 0 1 1 0 1 1 10000
0 0 1 1 1 0 1 1 1 1 10000
0 0 1 1 1 1 1 0 0 0 10000
0 1 1 0 1 0 1 0 1 1 0
1 0 0 1 0 1 1 0 0 1 10000
1 0 0 1 0 0 1 1 1 0 10000
0 1 1 0 1 0 1 1 0 0 10000
0 0 1 1 1 1 0 1 1 0 0
0 0 0 1 0 0 1 0 1 1 10000
1 1 1 0 1 1 1 0 0 1 10000
1 0 0 1 0 0 0 0 0 0 10000
1 1 1 0 1 0 1 1 1 0 10000
0 0 0 1 0 0 1 1 0 0 10000
0 1 1 0 1 1 0 1 0 1 0
1 0 0 1 0 0 0 1 1 1 10000
1 1 1 0 1 0 0 1 1 1 10000
1 0 1 1 1 1 1 0 1 0 10000
1 1 1 0 1 0 0 0 0 0 10000
1 1 0 1 1 0 0 1 1 0 10000
0 0 1 1 0 1 0 0 1 0 0
0 0 0 1 0 1 0 1 0 1 10000
0 1 0 0 1 0 1 1 0 1 10000
4 8 9 11 17 0 16
1 0 1 1 0
1 1 0 1 10000
1 0 0 0 10000
0 1 1 0 10000
1 0 1 0 10000
0 0 0 1 0
0 0 1 1 10000
1 0 0 1 10000
0 1 0 0 10000
1 1 1 1 10000
0 0 0 0 10000
0 0 1 0 0
0 1 0 1 10000
1 1 1 0 10000
0 1 1 1 0
1 1 0 0 10000
4 10 11 5 8 0 16
1 0 1 1 10000
1 1 0 1 10000
1 0 0 0 10000
0 1 1 0 0
1 0 1 0 0
0 0 0 1 10000
0 0 1 1 10000
1 0 0 1 0
0 1 0 0 10000
1 1 1 1 0
0 0 0 0 0
0 0 1 0 10000
0 1 0 1 0
1 1 1 0 10000
0 1 1 1 10000
1 1 0 0 10000
2 12 1 0 4
0 1 10000
1 0 0
0 0 10000
1 1 10000
2 13 18 0 4
0 1 10000
1 0 10000
0 0 0
1 1 0
2 14 6 0 4
0 1 10000
1 0 10000
0 0 0
1 1 0
8 15 16 17 18 2 7 9 13 0 256
1 0 0 0 1 0 0 0 0
0 0 0 0 1 0 0 0 10000
1 0 0 0 1 1 1 1 10000
0 1 1 1 0 1 0 1 10000
0 1 1 0 0 1 1 0 0
0 1 1 0 1 1 1 0 10000
1 1 1 1 1 1 0 1 10000
1 0 1 0 1 1 1 0 10000
0 0 1 0 1 1 1 0 10000
0 0 1 0 1 0 0 1 10000
1 0 0 0 0 0 1 0 0
0 1 0 0 0 1 1 0 10000
0 1 0 1 0 1 0 1 0
1 1 0 1 1 1 1 1 10000
1 0 1 1 0 0 0 0 10000
1 1 1 0 1 0 1 1 0
1 0 1 0 0 0 0 1 10000
0 0 1 0 0 1 0 0 0
1 1 1 0 1 1 0 0 10000
0 1 1 1 1 0 1 0 10000
1 1 0 1 0 0 1 0 10000
0 0 1 0 0 0 1 1 10000
0 0 0 0 0 1 0 1 10000
1 0 0 1 0 0 1 0 10000
1 0 1 0 1 1 0 0 0
0 1 0 1 1 1 0 1 10000
0 1 1 1 1 0 0 0 10000
1 0 1 0 1 0 1 1 10000
1 0 1 1 1 0 1 0 10000
1 0 0 1 1 1 1 1 10000
0 1 1 1 1 1 1 1 10000
0 0 1 1 0 1 1 0 0
1 1 0 0 0 0 1 0 10000
0 1 0 0 1 0 1 1 10000
1 0 0 1 1 0 0 0 10000
1 1 1 1 0 1 1 0 10000
0 0 0 0 1 1 0 1 10000
1 0 1 1 1 1 0 1 0
0 1 0 0 1 1 0 0 10000
0 1 1 1 0 0 1 0 10000
1 1 0 0 1 1 1 1 10000
0 0 1 1 1 1 1 0 10000
0 0 0 1 1 0 1 1 10000
1 1 0 0 1 0 0 0 10000
0 1 0 0 0 0 0 1 0
1 1 1 1 0 1 1 1 10000
0 1 0 1 0 0 0 0 10000
0 0 0 1 1 1 0 0 10000
1 0 1 1 0 1 0 1 10000
0 1 1 0 0 0 1 0 10000
0 1 0 1 0 1 1 1 10000
1 0 1 0 0 0 1 0 10000
1 1 1 0 1 0 0 1 10000
0 0 0 1 0 0 0 1 0
1 0 0 0 0 1 1 0 10000
1 0 0 1 0 1 0 1 0
0 0 0 0 0 0 0 0 0
1 1 1 0 0 1 1 1 0
0 1 0 1 1 0 1 0 0
0 1 0 0 1 1 0 1 10000
0 0 0 0 0 1 1 1 10000
0 1 1 0 1 0 0 0 10000
1 1 1 0 0 1 0 0 10000
0 0 1 1 0 0 1 1 0
1 1 0 1 0 1 1 0 10000
1 1 0 0 0 1 0 1 0
0 0 1 1 0 1 0 0 10000
1 1 1 1 1 0 0 0 10000
0 0 0 0 1 0 1 0 10000
1 0 0 1 1 1 0 1 10000
1 1 0 1 1 0 0 0 10000
1 1 1 0 1 1 1 0 0
1 0 1 1 1 0 0 0 10000
0 1 0 0 1 0 0 1 10000
0 1 1 1 0 1 1 1 0
0 0 1 1 1 0 0 1 0
1 0 1 1 1 1 1 1 10000
1 0 1 1 0 1 1 1 0
1 0 0 0 1 0 1 1 10000
1 1 0 0 1 1 0 1 10000
0 1 0 0 0 1 0 0 0
1 0 0 0 1 1 0 0 10000
0 0 0 1 1 0 0 1 10000
1 0 1 1 0 0 1 0 10000
0 1 0 0 0 0 1 1 10000
0 1 1 0 0 1 0 1 0
1 1 1 0 0 0 0 0 10000
1 1 1 1 1 1 1 0 10000
1 1 1 1 1 1 1 1 0
1 1 0 1 1 0 1 1 0
0 0 1 0 1 0 1 0 10000
1 0 0 0 0 0 0 1 0
0 0 0 1 0 1 0 0 0
1 0 0 1 0 0 0 0 10000
1 1 0 1 1 1 0 0 10000
0 0 0 1 0 0 1 1 10000
1 0 0 1 0 1 1 1 10000
0 0 1 0 0 1 1 1 10000
0 1 1 0 1 1 0 1 10000
1 0 1 1 1 0 1 1 0
1 0 1 0 1 1 1 1 10000
1 1 0 1 0 0 0 1 10000
0 0 1 0 0 0 0 0 10000
1 1 0 0 0 0 0 0 10000
0 0 1 1 0 0 0 1 10000
1 0 0 1 1 0 1 0 0
0 1 0 1 1 1 1 0 10000
1 1 0 0 0 1 1 1 10000
0 1 0 0 1 1 1 0 10000
1 0 1 0 1 0 0 0 10000
1 1 1 1 0 0 1 1 10000
0 1 1 1 1 1 0 0 10000
0 0 1 1 1 1 0 0 0
1 1 1 1 0 1 0 0 10000
1 1 0 0 1 0 1 0 0
0 0 1 1 1 0 1 1 10000
0 0 0 1 1 1 1 0 10000
1 0 0 0 1 0 0 1 10000
0 1 1 1 0 0 0 1 10000
0 1 1 0 0 0 0 0 10000
0 0 1 0 1 1 0 1 10000
0 1 1 0 0 1 1 1 10000
1 0 0 0 0 1 0 0 0
0 1 0 1 0 0 1 1 0
0 1 1 1 1 0 1 1 0
1 0 0 0 0 0 1 1 10000
1 0 1 0 0 1 0 1 0
0 1 0 1 0 1 0 0 10000
0 1 1 0 1 0 1 0 0
1 1 1 0 1 0 1 0 10000
1 1 0 1 0 1 0 0 10000
0 0 1 0 0 1 0 1 10000
0 0 0 0 0 0 1 1 10000
0 1 0 1 1 0 0 1 0
1 1 0 1 0 0 1 1 10000
0 0 0 0 0 1 0 0 10000
0 1 1 0 0 0 1 1 0
0 0 0 1 0 1 1 0 10000
1 0 1 0 1 1 0 1 10000
1 0 1 0 0 0 1 1 0
1 1 1 0 0 0 1 1 10000
0 1 1 1 1 0 0 1 10000
1 1 1 1 0 0 0 1 10000
0 0 0 0 1 0 0 1 10000
1 0 0 1 1 1 1 0 10000
1 0 0 0 1 1 1 0 10000
0 1 0 0 1 0 1 0 10000
0 1 1 1 0 1 0 0 10000
1 0 1 1 1 1 0 0 10000
1 1 1 1 1 1 0 0 10000
0 1 1 1 0 0 1 1 10000
0 0 1 0 1 0 0 0 0
1 1 0 0 1 1 1 0 10000
0 1 0 0 0 1 1 1 10000
1 1 0 1 1 0 0 1 10000
1 1 0 1 1 1 1 0 0
0 0 0 1 1 0 1 0 10000
1 0 1 1 0 0 0 1 10000
0 1 0 0 0 0 0 0 10000
0 0 0 0 1 1 1 0 10000
0 1 0 1 0 0 0 1 10000
1 1 1 1 1 0 1 1 10000
1 1 1 0 1 1 0 1 0
1 0 1 0 0 1 1 1 10000
0 0 1 0 0 0 1 0 0
1 0 0 1 0 0 1 1 0
0 1 0 1 1 1 0 0 0
0 0 0 1 0 0 0 0 10000
1 0 0 1 0 1 0 0 10000
0 0 0 0 0 0 0 1 10000
1 0 1 0 1 0 1 0 0
0 1 0 1 1 0 1 1 10000
0 1 1 1 1 1 1 0 0
1 1 1 0 0 1 0 1 10000
1 1 0 0 0 0 1 1 0
0 0 1 1 0 0 1 0 10000
1 0 0 1 1 0 0 1 0
0 0 0 0 1 1 0 0 10000
1 1 0 0 0 1 0 0 10000
0 0 1 0 1 1 1 1 10000
0 0 0 0 1 0 1 1 10000
1 1 1 0 1 1 1 1 10000
1 1 1 1 0 0 0 0 10000
0 0 1 1 1 1 1 1 10000
1 0 1 1 1 0 0 1 10000
1 1 0 0 1 0 0 1 0
0 0 1 1 1 0 0 0 10000
0 0 0 1 1 1 0 1 10000
1 0 0 0 1 0 1 0 10000
1 0 1 1 0 1 0 0 10000
0 1 0 0 0 1 0 1 10000
0 1 0 1 0 1 1 0 0
1 0 1 0 0 0 0 0 10000
1 0 1 1 0 0 1 1 10000
0 1 1 0 0 1 0 0 10000
1 1 1 0 1 0 0 0 10000
1 0 0 0 0 1 1 1 10000
1 1 0 1 1 0 1 0 10000
1 0 0 0 0 0 0 0 10000
0 0 0 0 0 0 1 0 10000
0 0 0 1 0 1 0 1 10000
0 0 0 0 0 1 1 0 10000
1 0 0 1 0 0 0 1 10000
0 1 1 0 1 0 0 1 0
1 0 1 0 1 0 0 1 0
1 0 1 1 0 1 1 0 10000
1 1 0 1 0 1 1 1 0
0 0 1 0 0 1 1 0 10000
0 0 1 1 0 1 0 1 0
1 0 0 1 1 1 0 0 0
1 1 0 1 0 0 0 0 10000
1 1 0 0 0 0 0 1 10000
0 1 0 0 1 0 0 0 0
1 0 0 1 1 0 1 1 10000
1 1 1 1 1 0 0 1 10000
1 0 1 1 1 1 1 0 0
0 1 0 0 1 1 1 1 10000
1 1 1 1 0 0 1 0 10000
1 1 0 0 1 1 0 0 0
0 0 1 1 1 1 0 1 10000
1 1 1 0 0 0 0 1 10000
1 0 0 0 1 1 0 1 10000
0 0 0 1 1 0 0 0 0
1 1 0 0 1 0 1 1 10000
0 1 0 0 0 0 1 0 0
1 1 1 0 0 0 1 0 10000
0 0 0 1 1 1 1 1 10000
0 1 1 1 0 0 0 0 10000
0 0 1 0 1 0 1 1 10000
0 1 1 0 0 0 0 1 10000
1 1 0 1 1 1 0 1 0
0 0 1 0 1 1 0 0 10000
0 0 0 1 0 0 1 0 0
1 0 0 0 0 1 0 1 10000
1 0 0 1 0 1 1 0 0
0 1 0 1 0 0 1 0 10000
0 1 1 0 1 1 0 0 0
1 0 1 0 0 1 0 0 10000
0 0 1 0 0 0 0 1 0
0 1 1 0 1 0 1 1 10000
0 1 1 1 0 1 1 0 10000
0 0 1 1 0 0 0 0 10000
0 1 0 1 1 1 1 1 10000
1 0 1 0 0 1 1 0 0
1 1 0 1 0 1 0 1 10000
1 1 0 0 0 1 1 0 0
0 0 1 1 0 1 1 1 10000
0 0 0 0 1 1 1 1 10000
0 1 0 1 1 0 0 0 10000
1 1 1 1 1 0 1 0 10000
0 1 1 1 1 1 0 1 0
1 1 1 0 0 1 1 0 10000
1 1 1 1 0 1 0 1 10000
0 0 0 1 0 1 1 1 10000
0 0 1 1 1 0 1 0 0
0 1 1 0 1 1 1 1 10000
2 19 4 0 4
0 1 10000
1 0 10000
0 0 0
1 1 0
